20170626 25 0 0 0
20160627 50 10000 0 0
20150714 50 0 0 0
20140627 50 0 0 0
20130604 100 0 0 0
20100317 200 5000 0 0
20090224 0 10000 0 0
20060616 50 6000 0 0
20060522 0 3300 0 0
20050715 50 0 0 0
20040615 100 0 0 0
